n = 25;
budget = 250000;
groceries = [|135,279,90,118,1114|192,216,8,110,3490|240,144,128,89,2334|85,160,75,91,1456|12,6,78,110,3940|60,160,290,140,3406|36,27,18,99,3268|168,138,42,70,3229|75,215,90,171,2229|98,343,203,141,1851|6,384,168,186,1028|110,540,120,62,2201|60,300,132,200,3368|112,392,32,194,2314|135,171,216,119,3582|110,100,140,137,3674|77,168,315,69,1234|20,110,500,133,3550|24,64,96,57,1267|42,54,12,165,2740|105,126,168,82,3279|30,10,370,186,3251|54,42,252,137,1575|120,296,216,144,1894|70,200,160,91,1016|];
requirements = [|1140,1380|6000,6000|1710,1860|];
offset = [|114,276|3000,3900|427,651|];
variety = 9;